benchmarks/bfuzz0/7865140163490115384668228795659291.smt2
(set-logic QF_FP)
(declare-const x0 (_ FloatingPoint 8 24))
(declare-const x1 (_ FloatingPoint 8 24))
(declare-const x2 (_ FloatingPoint 8 24))
(declare-const x3 (_ FloatingPoint 8 24))
(declare-const x4 (_ FloatingPoint 8 24))
(declare-const x5 (_ FloatingPoint 8 24))
(declare-const x6 (_ FloatingPoint 8 24))
(declare-const x7 (_ FloatingPoint 8 24))
(declare-const x8 (_ FloatingPoint 8 24))
(declare-const x9 (_ FloatingPoint 8 24))
(declare-const x10 (_ FloatingPoint 8 24))
(declare-const x11 (_ FloatingPoint 8 24))
(declare-const x12 (_ FloatingPoint 8 24))
(declare-const x13 (_ FloatingPoint 8 24))
(declare-const x14 (_ FloatingPoint 8 24))
(declare-const x15 (_ FloatingPoint 8 24))
(assert (fp.eq (fp.mul RNE x4 x11) (fp.mul RNE x5 x11)))
(assert (fp.leq (fp.sub RNE x3 x9) (fp.div RNE x4 x2)))
(assert (fp.leq (fp.div RNE x2 x13) (fp.div RNE x5 x8)))
(assert (fp.gt (fp.add RNE x2 x5) (fp.mul RNE x10 x5)))
(assert (fp.geq (fp.neg x0) (fp.add RNE x12 x4)))
(check-sat)
