db/data/7865140163490115384668228795659291.z3.out
sat
-------------------
13.972748766
